10	5
0	2	1	2
1	1	7
2	2	7	4
3	2	11	9
4	1	6
5	2	8	9
6	2	3	5
7	2	3	5
8	1	11
9	1	11
10	1	11
11	0
0	0	0	0	0	0	0
1	9	3	0	0	2	3
2	6	0	0	5	3	2
3	9	4	0	5	2	4
4	9	0	4	1	2	5
5	9	2	1	2	1	5
6	9	1	1	2	5	5
7	9	2	4	4	1	5
8	7	0	5	5	1	3
9	3	0	0	3	3	1
10	4	2	1	0	0	0
11	0	0	0	0	0	0
5	5	5	5	6
